6569.96
27 27 0 0 56 192 165 192 0 0 16 192 56 192 27 0 16 0 56 27 0 56 16 0 56 192 0 0 16 0 0 56 192 0 0 192 0 0 0 0 56 56 0 56 0 192 0 192 16 56 0 192 192 192 0 0 192 192 192 192 0 192 0 192 56 192 192 0 192 0 192 192 56 0 165 27 0 0 0 27 192 0 27 0 0 27 0 0 0 192 0 16 27 0 16 0 16 192 0 0 192 27 0 0 27 56 192 0 56 0 72 56 27 72 0 192 27 0 0 192 56 16 56 16 56 27 16 0 192 27 56 16 27 27 192 0 192 0 0 27 56 16 16 56 0 0 0 16 192 0 56 192 27 0 192 192 27 56 0 0 192 0 27 56 56 0 0 0 56 56 0 192 0 0 0 192 56 192 56 27 0 27 192 192 192 0 192 56 56 56 192 16 0 56 27 16 72 56 27 27 
